c This is QMaxSAT 2017 based on 14.07
c This is Glucose 3.0
c This is MiniSat 2.2.0
c WARNING: for repeatability, setting FPU to use double precision
c card = mrwto, comp = 0, pmodel = 0, narr = 2, mct = 14, verb = 0
cr firstCPXsol 0 0 0
c top = 80229
c |  Number of variables:    2420                                             |
c |  Number of clauses:      147762                                           |
c |  Weight of hard clauses: 80229                                            |
c |  Number of soft clauses: 364                                              |
c |  Number of unit soft clauses: 364                                         |
c |  Maximum Cardinality (by unit): 160456       (160456      )               |
c last restart ## conflicts  :  4 368 
o 4108 | cpuTime 0.022636 s
c Sum of weights = 80228
c A number of soft clauses remained = 182
c MRWTO encoding for Pseudo-Boolean Constraints
c sizeMax=4108
c No.0 Divisor=9	generated by pow1
c No.1 Divisor=8	generated by pow1
c No.2 Divisor=9	generated by pow1
c No.3 Divisor=9	generated by pow1
c p0= 9	p1= 8	p2= 9	p3= 9	
c number of digits = 5
c linkingVar[0].size = 9, linkingVar[1].size = 8, linkingVar[2].size = 9, linkingVar[3].size = 7, linkingVar[4].size = 1, 
c Pseudo-Boolean Constraints: 4523 variables and 35067 clauses
c Sum of weights = 80228
c A number of soft clauses remained = 182
c MRWTO encoding for Pseudo-Boolean Constraints
c sizeMax=4108
c No.0 Divisor=9	generated by pow1
c No.1 Divisor=8	generated by pow1
c No.2 Divisor=9	generated by pow1
c No.3 Divisor=9	generated by pow1
c p0= 9	p1= 8	p2= 9	p3= 9	
c number of digits = 5
c linkingVar[0].size = 9, linkingVar[1].size = 8, linkingVar[2].size = 9, linkingVar[3].size = 7, linkingVar[4].size = 1, 
c Pseudo-Boolean Constraints: 4523 variables and 35067 clauses
c last restart ## conflicts  :  44 1379 
o 3518 | cpuTime 0.048824 s
c last restart ## conflicts  :  57 1134 
o 2666 | cpuTime 0.089234 s
c last restart ## conflicts  :  587 770 
o 2596 | cpuTime 0.595222 s
c last restart ## conflicts  :  77 2445 
o 2442 | cpuTime 0.600989 s
c last restart ## conflicts  :  120 1145 
o 2428 | cpuTime 0.609885 s
c last restart ## conflicts  :  368 599 
o 2416 | cpuTime 0.961729 s
c last restart ## conflicts  :  297 542 
o 2409 | cpuTime 1.30419 s
c last restart ## conflicts  :  562 848 
o 2324 | cpuTime 1.51441 s
c last restart ## conflicts  :  377 589 
o 2314 | cpuTime 2.33179 s
c last restart ## conflicts  :  72 2009 
o 2270 | cpuTime 2.33607 s
c last restart ## conflicts  :  406 833 
o 2254 | cpuTime 2.40799 s
c last restart ## conflicts  :  990 738 
o 2153 | cpuTime 2.6566 s
c last restart ## conflicts  :  3913 634 
o 2129 | cpuTime 3.07746 s
c last restart ## conflicts  :  1249 593 
o 2109 | cpuTime 3.61451 s
c last restart ## conflicts  :  429 522 
o 2056 | cpuTime 9.87906 s
c last restart ## conflicts  :  1821 481 
o 2055 | cpuTime 12.9039 s
c last restart ## conflicts  :  9 579 
o 2042 | cpuTime 82.4533 s
c last restart ## conflicts  :  28 445 
o 2038 | cpuTime 274.317 s
s OPTIMUM FOUND
cr positiVarArr: [ | 3@1(1->3) | 32@1(3->4) | 53@1(4->11) | 122@1(9->10) | 127@1(10->1) | 149@1(11->9) | 204@2(1->8) | 211@2(2->1) | 258@2(5->6) | 278@2(6->12) | 285@2(7->5) | 307@2(8->13) | 364@2(12->14) | 371@2(13->7) | 380@2(14->2) | ]
cr the 1-th chain: [ 1->3->4->11->9->10->1 ] (#non-depot=5) {#cumul.=6}
cr the 2-th chain: [ 1->8->13->7->5->6->12->14->2->1 ] (#non-depot=8) {#cumul.=14}
c Latest Answer = 0 by 19 loops
c restarts              : 9671
c conflicts             : 2549296        (7185 /sec)
c decisions             : 4201121        (0.00 % random) (11841 /sec)
c propagations          : 1035545696     (2918658 /sec)
c conflict literals     : 213320612      (48.34 % deleted)
c Memory used           : 171.00 MB
c CPU time              : 354.802 s
